# Objective value = 85165
y 1715
max_nDIRx 2026
min_nDIRx 1877
max_nDIRy 861
min_nDIRy 160
max_nC30x 1453
min_nC30x 971
max_nC30y 1478
min_nC30y 352
max_nC34x 1556
min_nC34x 971
max_nC34y 1478
min_nC34y 352
max_nC36Ax 2156
min_nC36Ax 2026
max_nC36Ay 760
min_nC36Ay 160
max_nC74x 1184
min_nC74x 1129
max_nC74y 543
min_nC74y 180
max_nC307x 1453
min_nC307x 1029
max_nC307y 1017
min_nC307y 352
max_n7x 2078
min_n7x 1877
max_n7y 1458
min_n7y 861
max_n22x 2173
min_n22x 1991
max_n22y 639
min_n22y 274
max_n25x 2173
min_n25x 1563
max_n25y 1458
min_n25y 274
max_n29x 1564
min_n29x 557
max_n29y 1036
min_n29y 375
max_n38x 1634
min_n38x 557
max_n38y 375
min_n38y 233
max_n42x 1991
min_n42x 1634
max_n42y 639
min_n42y 233
max_n44x 2173
min_n44x 1564
max_n44y 1036
min_n44y 274
max_n46x 2395
min_n46x 449
max_n46y 546
min_n46y 164
max_n50x 2078
min_n50x 1634
max_n50y 1458
min_n50y 233
max_n53x 2078
min_n53x 1991
max_n53y 1458
min_n53y 639
max_n55x 2078
min_n55x 1563
max_n55y 1458
min_n55y 712
max_n88x 2078
min_n88x 449
max_n88y 1458
min_n88y 543
max_n93x 1929
min_n93x 1563
max_n93y 1245
min_n93y 712
max_n109x 1929
min_n109x 1187
max_n109y 1431
min_n109y 1245
max_n114x 2078
min_n114x 1187
max_n114y 1458
min_n114y 1245
max_n116x 1877
min_n116x 135
max_n116y 1087
min_n116y 543
max_n123x 449
min_n123x 135
max_n123y 642
min_n123y 543
max_n126x 751
min_n126x 135
max_n126y 1087
min_n126y 543
max_n198x 1184
min_n198x 478
max_n198y 918
min_n198y 543
max_n219x 2042
min_n219x 2026
max_n219y 1077
min_n219y 160
max_n222x 2026
min_n222x 971
max_n222y 1478
min_n222y 160
max_n226x 2156
min_n226x 2026
max_n226y 1077
min_n226y 160
max_n234x 1556
min_n234x 971
max_n234y 1478
min_n234y 1459
max_n257x 2042
min_n257x 1453
max_n257y 1077
min_n257y 264
max_n273x 2156
min_n273x 871
max_n273y 546
min_n273y 180
max_n280x 1129
min_n280x 871
max_n280y 543
min_n280y 180
max_n282x 1184
min_n282x 871
max_n282y 543
min_n282y 543
max_n284x 2156
min_n284x 871
max_n284y 546
min_n284y 543
max_n291x 2156
min_n291x 2010
max_n291y 546
min_n291y 274
max_n311x 1453
min_n311x 1029
max_n311y 1017
min_n311y 352
max_n327x 2042
min_n327x 1848
max_n327y 1077
min_n327y 264
max_n331x 2156
min_n331x 1848
max_n331y 760
min_n331y 264
max_n371x 1877
min_n371x 606
max_n371y 861
min_n371y 861
max_n378x 2486
min_n378x 2156
max_n378y 555
min_n378y 546
max_n379x 2486
min_n379x 871
max_n379y 555
min_n379y 543
max_n391x 2010
min_n391x 478
max_n391y 918
min_n391y 274
max_n399x 2486
min_n399x 2010
max_n399y 555
min_n399y 274
x1 2280
r1 1
y1 445
x2 1954
r2 0
y2 114
x3 2049
r3 1
y3 435
x4 223
r4 1
y4 757
x5 1822
r5 1
y5 1083
x6 1305
r6 0
y6 550
x7 547
r7 0
y7 748
x8 1933
r8 1
y8 864
x9 1743
r9 0
y9 0
x10 1297
r10 1
y10 238
x11 865
r11 0
y11 1268
x12 1969
r12 1
y12 0
x13 2049
r13 1
y13 649
x14 0
r14 0
y14 0
x15 241
r15 1
y15 331
x16 1297
r16 1
y16 1197
x17 1078
r17 0
y17 1268
x18 546
r18 1
y18 974
x19 1822
r19 0
y19 697
x20 29
r20 0
y20 528
x21 1822
r21 0
y21 1298
x22 2066
r22 0
y22 114
x23 1307
r23 0
y23 875
x24 1933
r24 0
y24 528
x25 1526
r25 0
y25 21
x26 448
r26 1
y26 113
x27 0
r27 1
y27 1268
x28 2290
r28 0
y28 8
x29 513
r29 1
y29 0
x30 1078
r30 0
y30 429
x31 973
r31 1
y31 18
x32 665
r32 0
y32 331
x33 773
r33 1
y33 755
p12 1
q12 1
p13 1
q13 0
p14 1
q14 0
p15 1
q15 0
p16 1
q16 0
p17 1
q17 0
p18 0
q18 1
p19 1
q19 0
p110 1
q110 0
p111 0
q111 1
p112 1
q112 1
p113 1
q113 0
p114 1
q114 0
p115 1
q115 0
p116 0
q116 1
p117 0
q117 1
p118 1
q118 0
p119 1
q119 0
p120 1
q120 0
p121 0
q121 1
p122 1
q122 0
p123 1
q123 0
p124 1
q124 0
p125 1
q125 1
p126 1
q126 0
p127 1
q127 0
p128 1
q128 1
p129 1
q129 0
p130 1
q130 0
p131 1
q131 1
p132 1
q132 0
p133 1
q133 0
p23 0
q23 1
p24 1
q24 0
p25 0
q25 1
p26 0
q26 1
p27 1
q27 0
p28 0
q28 1
p29 1
q29 0
p210 1
q210 0
p211 0
q211 1
p212 1
q212 1
p213 0
q213 1
p214 1
q214 0
p215 1
q215 0
p216 0
q216 1
p217 0
q217 1
p218 0
q218 1
p219 0
q219 1
p220 0
q220 1
p221 0
q221 1
p222 0
q222 0
p223 1
q223 0
p224 0
q224 1
p225 1
q225 0
p226 1
q226 0
p227 1
q227 0
p228 0
q228 0
p229 1
q229 0
p230 1
q230 0
p231 1
q231 0
p232 1
q232 0
p233 1
q233 0
p34 1
q34 0
p35 0
q35 1
p36 1
q36 0
p37 0
q37 1
p38 0
q38 1
p39 1
q39 0
p310 1
q310 0
p311 0
q311 1
p312 1
q312 1
p313 0
q313 1
p314 1
q314 1
p315 1
q315 0
p316 0
q316 1
p317 0
q317 1
p318 0
q318 1
p319 1
q319 0
p320 1
q320 0
p321 0
q321 1
p322 1
q322 1
p323 1
q323 0
p324 1
q324 0
p325 1
q325 0
p326 1
q326 0
p327 1
q327 0
p328 0
q328 0
p329 1
q329 1
p330 1
q330 0
p331 1
q331 1
p332 1
q332 0
p333 0
q333 1
p45 0
q45 0
p46 0
q46 0
p47 0
q47 0
p48 0
q48 0
p49 0
q49 0
p410 0
q410 0
p411 0
q411 0
p412 0
q412 0
p413 0
q413 0
p414 1
q414 1
p415 1
q415 1
p416 0
q416 0
p417 0
q417 0
p418 0
q418 0
p419 0
q419 0
p420 1
q420 1
p421 0
q421 0
p422 0
q422 0
p423 0
q423 0
p424 0
q424 0
p425 1
q425 1
p426 1
q426 1
p427 0
q427 1
p428 0
q428 0
p429 1
q429 1
p430 1
q430 1
p431 1
q431 1
p432 1
q432 1
p433 0
q433 0
p56 1
q56 1
p57 1
q57 0
p58 1
q58 1
p59 1
q59 1
p510 1
q510 1
p511 1
q511 0
p512 1
q512 1
p513 1
q513 1
p514 1
q514 1
p515 1
q515 0
p516 1
q516 0
p517 1
q517 0
p518 1
q518 0
p519 1
q519 1
p520 1
q520 0
p521 0
q521 1
p522 1
q522 1
p523 1
q523 0
p524 1
q524 1
p525 1
q525 0
p526 1
q526 1
p527 1
q527 0
p528 0
q528 0
p529 1
q529 1
p530 1
q530 1
p531 1
q531 1
p532 1
q532 1
p533 1
q533 0
p67 1
q67 0
p68 0
q68 0
p69 1
q69 1
p610 1
q610 1
p611 1
q611 0
p612 1
q612 1
p613 0
q613 0
p614 1
q614 0
p615 1
q615 0
p616 0
q616 1
p617 0
q617 1
p618 0
q618 1
p619 0
q619 0
p620 1
q620 0
p621 0
q621 0
p622 0
q622 0
p623 0
q623 1
p624 0
q624 0
p625 1
q625 1
p626 1
q626 0
p627 1
q627 0
p628 0
q628 0
p629 1
q629 1
p630 1
q630 0
p631 1
q631 1
p632 1
q632 0
p633 1
q633 0
p78 0
q78 0
p79 0
q79 0
p710 0
q710 0
p711 0
q711 0
p712 0
q712 0
p713 0
q713 0
p714 1
q714 0
p715 1
q715 1
p716 0
q716 0
p717 0
q717 1
p718 0
q718 1
p719 0
q719 0
p720 1
q720 0
p721 0
q721 1
p722 1
q722 1
p723 0
q723 0
p724 0
q724 0
p725 1
q725 1
p726 1
q726 1
p727 1
q727 0
p728 0
q728 0
p729 1
q729 1
p730 1
q730 1
p731 1
q731 1
p732 0
q732 0
p733 0
q733 0
p89 1
q89 1
p810 1
q810 1
p811 1
q811 0
p812 1
q812 1
p813 1
q813 1
p814 1
q814 1
p815 1
q815 0
p816 1
q816 0
p817 1
q817 0
p818 1
q818 0
p819 1
q819 0
p820 1
q820 0
p821 0
q821 1
p822 1
q822 1
p823 1
q823 0
p824 1
q824 1
p825 1
q825 1
p826 1
q826 0
p827 1
q827 0
p828 1
q828 1
p829 1
q829 1
p830 1
q830 1
p831 1
q831 1
p832 1
q832 0
p833 1
q833 0
p910 1
q910 0
p911 0
q911 1
p912 0
q912 0
p913 0
q913 1
p914 1
q914 0
p915 1
q915 0
p916 0
q916 1
p917 1
q917 0
p918 0
q918 1
p919 0
q919 1
p920 0
q920 1
p921 0
q921 1
p922 0
q922 0
p923 0
q923 1
p924 0
q924 1
p925 1
q925 0
p926 1
q926 0
p927 0
q927 1
p928 0
q928 0
p929 1
q929 0
p930 1
q930 0
p931 1
q931 0
p932 1
q932 0
p933 0
q933 1
p1011 0
q1011 1
p1012 0
q1012 0
p1013 0
q1013 0
p1014 1
q1014 0
p1015 1
q1015 0
p1016 0
q1016 1
p1017 0
q1017 1
p1018 0
q1018 1
p1019 0
q1019 1
p1020 1
q1020 0
p1021 0
q1021 1
p1022 0
q1022 0
p1023 0
q1023 1
p1024 0
q1024 0
p1025 0
q1025 0
p1026 1
q1026 0
p1027 1
q1027 0
p1028 0
q1028 0
p1029 1
q1029 1
p1030 1
q1030 0
p1031 1
q1031 0
p1032 1
q1032 0
p1033 1
q1033 0
p1112 1
q1112 1
p1113 0
q1113 0
p1114 1
q1114 0
p1115 1
q1115 1
p1116 0
q1116 0
p1117 0
q1117 0
p1118 1
q1118 0
p1119 1
q1119 1
p1120 1
q1120 0
p1121 0
q1121 0
p1122 0
q1122 0
p1123 0
q1123 0
p1124 0
q1124 0
p1125 0
q1125 0
p1126 1
q1126 1
p1127 1
q1127 0
p1128 0
q1128 0
p1129 1
q1129 1
p1130 1
q1130 1
p1131 1
q1131 1
p1132 1
q1132 1
p1133 1
q1133 1
p1213 0
q1213 1
p1214 1
q1214 0
p1215 1
q1215 0
p1216 0
q1216 1
p1217 1
q1217 0
p1218 1
q1218 0
p1219 0
q1219 1
p1220 0
q1220 1
p1221 0
q1221 1
p1222 0
q1222 1
p1223 0
q1223 1
p1224 0
q1224 1
p1225 1
q1225 0
p1226 1
q1226 0
p1227 1
q1227 0
p1228 0
q1228 0
p1229 1
q1229 0
p1230 0
q1230 1
p1231 1
q1231 0
p1232 1
q1232 0
p1233 0
q1233 1
p1314 1
q1314 1
p1315 1
q1315 0
p1316 0
q1316 1
p1317 1
q1317 0
p1318 1
q1318 0
p1319 1
q1319 0
p1320 1
q1320 0
p1321 0
q1321 1
p1322 1
q1322 1
p1323 1
q1323 0
p1324 1
q1324 0
p1325 1
q1325 1
p1326 1
q1326 0
p1327 1
q1327 0
p1328 0
q1328 0
p1329 1
q1329 0
p1330 1
q1330 0
p1331 1
q1331 1
p1332 1
q1332 0
p1333 1
q1333 0
p1415 0
q1415 1
p1416 0
q1416 1
p1417 0
q1417 0
p1418 0
q1418 0
p1419 0
q1419 1
p1420 0
q1420 1
p1421 0
q1421 0
p1422 0
q1422 0
p1423 0
q1423 1
p1424 0
q1424 0
p1425 0
q1425 0
p1426 0
q1426 0
p1427 0
q1427 1
p1428 0
q1428 0
p1429 0
q1429 0
p1430 0
q1430 1
p1431 0
q1431 0
p1432 0
q1432 1
p1433 0
q1433 1
p1516 0
q1516 0
p1517 0
q1517 0
p1518 0
q1518 1
p1519 0
q1519 0
p1520 1
q1520 0
p1521 0
q1521 1
p1522 0
q1522 0
p1523 0
q1523 1
p1524 0
q1524 0
p1525 0
q1525 0
p1526 1
q1526 1
p1527 0
q1527 1
p1528 0
q1528 0
p1529 1
q1529 1
p1530 0
q1530 0
p1531 0
q1531 0
p1532 0
q1532 0
p1533 0
q1533 1
p1617 1
q1617 0
p1618 1
q1618 0
p1619 1
q1619 1
p1620 1
q1620 0
p1621 0
q1621 0
p1622 1
q1622 1
p1623 1
q1623 1
p1624 0
q1624 0
p1625 1
q1625 1
p1626 1
q1626 1
p1627 1
q1627 0
p1628 1
q1628 1
p1629 1
q1629 0
p1630 1
q1630 1
p1631 1
q1631 1
p1632 1
q1632 1
p1633 1
q1633 0
p1718 1
q1718 0
p1719 1
q1719 1
p1720 1
q1720 1
p1721 0
q1721 0
p1722 0
q1722 0
p1723 1
q1723 1
p1724 0
q1724 0
p1725 1
q1725 1
p1726 1
q1726 0
p1727 1
q1727 0
p1728 0
q1728 0
p1729 1
q1729 1
p1730 1
q1730 1
p1731 1
q1731 1
p1732 1
q1732 0
p1733 1
q1733 1
p1819 0
q1819 0
p1820 1
q1820 0
p1821 0
q1821 0
p1822 1
q1822 1
p1823 0
q1823 0
p1824 0
q1824 0
p1825 1
q1825 1
p1826 1
q1826 1
p1827 1
q1827 0
p1828 0
q1828 0
p1829 1
q1829 1
p1830 1
q1830 1
p1831 1
q1831 1
p1832 1
q1832 1
p1833 0
q1833 0
p1920 1
q1920 0
p1921 0
q1921 1
p1922 1
q1922 1
p1923 1
q1923 0
p1924 0
q1924 0
p1925 1
q1925 0
p1926 1
q1926 0
p1927 1
q1927 0
p1928 0
q1928 0
p1929 1
q1929 1
p1930 1
q1930 0
p1931 1
q1931 1
p1932 1
q1932 0
p1933 1
q1933 0
p2021 0
q2021 0
p2022 0
q2022 0
p2023 0
q2023 0
p2024 0
q2024 0
p2025 1
q2025 1
p2026 0
q2026 0
p2027 0
q2027 1
p2028 1
q2028 1
p2029 1
q2029 1
p2030 0
q2030 0
p2031 1
q2031 1
p2032 0
q2032 0
p2033 0
q2033 0
p2122 1
q2122 1
p2123 1
q2123 1
p2124 1
q2124 1
p2125 1
q2125 0
p2126 1
q2126 1
p2127 1
q2127 0
p2128 1
q2128 1
p2129 1
q2129 1
p2130 1
q2130 0
p2131 1
q2131 0
p2132 1
q2132 1
p2133 1
q2133 1
p2223 0
q2223 1
p2224 1
q2224 0
p2225 1
q2225 0
p2226 1
q2226 0
p2227 1
q2227 0
p2228 0
q2228 0
p2229 1
q2229 0
p2230 1
q2230 0
p2231 1
q2231 0
p2232 1
q2232 0
p2233 0
q2233 1
p2324 0
q2324 0
p2325 1
q2325 1
p2326 1
q2326 1
p2327 1
q2327 0
p2328 0
q2328 0
p2329 1
q2329 1
p2330 1
q2330 1
p2331 1
q2331 1
p2332 1
q2332 1
p2333 1
q2333 0
p2425 1
q2425 0
p2426 1
q2426 0
p2427 1
q2427 0
p2428 1
q2428 1
p2429 1
q2429 0
p2430 1
q2430 0
p2431 1
q2431 0
p2432 1
q2432 0
p2433 1
q2433 0
p2526 1
q2526 0
p2527 0
q2527 1
p2528 0
q2528 0
p2529 1
q2529 0
p2530 1
q2530 0
p2531 1
q2531 0
p2532 1
q2532 0
p2533 1
q2533 0
p2627 0
q2627 1
p2628 0
q2628 0
p2629 1
q2629 1
p2630 0
q2630 0
p2631 0
q2631 0
p2632 0
q2632 1
p2633 0
q2633 1
p2728 0
q2728 0
p2729 1
q2729 1
p2730 0
q2730 0
p2731 1
q2731 1
p2732 0
q2732 0
p2733 0
q2733 0
p2829 1
q2829 0
p2830 1
q2830 0
p2831 1
q2831 0
p2832 1
q2832 0
p2833 1
q2833 0
p2930 0
q2930 1
p2931 0
q2931 0
p2932 0
q2932 1
p2933 0
q2933 1
p3031 1
q3031 1
p3032 1
q3032 0
p3033 0
q3033 1
p3132 0
q3132 1
p3133 0
q3133 1
p3233 0
q3233 1
